\Problem name: 

Minimize
OBJROW: 90 x_0 + 180 x_1 + 25 x_2 + 90 x_3 + 180 x_4 + 25 x_5
Subject To
constr(0):  x_0 + x_1 + x_2 = 10
constr(1):  x_3 + x_4 + x_5 = 6
constr(2):  0.00500 x_0 + 0.90000 x_1 + 0.09000 x_2 <= 0.95000
constr(3):  0.00500 x_0 + 0.90000 x_1 + 0.09000 x_2 >= -0
constr(4):  0.00500 x_3 + 0.90000 x_4 + 0.09000 x_5 <= 2.40000
constr(5):  0.00500 x_3 + 0.90000 x_4 + 0.09000 x_5 >= -0
constr(6):  0.14000 x_3 + 0.27000 x_5 <= 1.14000
constr(7):  0.14000 x_3 + 0.27000 x_5 >= 0.72000
constr(8):  0.14000 x_0 + 0.27000 x_2 <= 2
constr(9):  0.14000 x_0 + 0.27000 x_2 >= 1.90000
constr(10):  x_0 + x_3 <= 5
constr(11):  x_1 + x_4 <= 5
constr(12):  x_2 + x_5 <= 12
Bounds
End
